Route #1: 270 614 157
Route #2: 710 624
Route #3: 544 54
Route #4:
Route #5:
Route #6:
Route #7:
Route #8:
Route #9:
Route #10:
Route #11:
Route #12:
Route #13:
Route #14:
Route #15:
Route #16:
Route #17:
Route #18:
Route #19:
Route #20:
Route #21:
Route #22:
Route #23:
Route #24:
Route #25:
Route #26:
Route #27:
Route #28:
Route #29:
Route #30:
Route #31:
Route #32:
Route #33:
Route #34:
Route #35:
Route #36:
Route #37:
Route #38:
Route #39:
Route #40:
Route #41:
Route #42:
Route #43:
Route #44:
Route #45:
Route #46:
Route #47:
Route #48:
Route #49:
Route #50:
Route #51:
Route #52:
Route #53:
Route #54:
Route #55:
Route #56:
Route #57:
Route #58:
Route #59:
Route #60:
Route #61:
Route #62:
Route #63:
Route #64:
Route #65:
Route #66:
Route #67:
Route #68:
Route #69:
Route #70:
Route #71:
Route #72:
Route #73:
Route #74:
Route #75:
Route #76:
Route #77:
Route #78:
Route #79:
Route #80:
Route #81:
Route #82:
Route #83:
Route #84:
Route #85:
Route #86:
Route #87:
Route #88:
Route #89:
Route #90:
Route #91:
Route #92:
Route #93:
Route #94:
Route #95:
Route #96:
Route #97:
Route #98:
Route #99:
Route #100:
Route #101:
Route #102:
Route #103:
Route #104:
Route #105:
Route #106:
Route #107:
Route #108:
Route #109:
Route #110:
Route #111:
Route #112:
Route #113:
Route #114:
Route #115:
Route #116:
Route #117:
Route #118:
Route #119:
Route #120:
Route #121:
Route #122:
Route #123:
Route #124:
Route #125:
Route #126:
Route #127:
Route #128:
Route #129:
Route #130:
Route #131:
Route #132:
Route #133:
Route #134:
Route #135:
Route #136:
Route #137:
Route #138:
Route #139:
Route #140:
Route #141:
Route #142:
Route #143:
Route #144:
Route #145:
Route #146:
Route #147:
Route #148:
Route #149:
Route #150:
Route #151:
Route #152:
Route #153:
Route #154:
Route #155:
Route #156:
Route #157:
Route #158:
Route #159:
Route #160:
Route #161:
Route #162:
Route #163:
Route #164:
Route #165:
Route #166:
Route #167:
Route #168:
Route #169:
Route #170:
Route #171:
Route #172:
Route #173:
Route #174:
Route #175:
Route #176:
Route #177:
Route #178:
Route #179:
Route #180:
Route #181:
Route #182:
Route #183:
Route #184:
Route #185:
Route #186:
Route #187:
Route #188:
Route #189:
Route #190:
Route #191:
Route #192:
Route #193:
Route #194:
Route #195:
Route #196:
Route #197:
Route #198:
Route #199:
Route #200:
Route #201:
Route #202:
Route #203:
Route #204:
Route #205:
Route #206:
Route #207:
Route #208:
Route #209:
Route #210:
Route #211:
Route #212:
Route #213:
Route #214:
Route #215:
Route #216:
Route #217:
Route #218:
Route #219:
Route #220:
Route #221:
Route #222:
Route #223:
Route #224:
Route #225:
Route #226:
Route #227:
Route #228:
Route #229:
Route #230:
Route #231:
Route #232:
Route #233:
Route #234:
Route #235:
Route #236:
Route #237:
Route #238:
Route #239:
Route #240:
Route #241:
Route #242:
Route #243:
Route #244:
Route #245:
Route #246:
Route #247:
Route #248:
Route #249:
Route #250:
Route #251:
Route #252:
Route #253:
Route #254:
Route #255:
Route #256:
Route #257:
Route #258:
Route #259:
Route #260:
Route #261:
Route #262:
Route #263:
Route #264:
Route #265:
Route #266:
Route #267:
Route #268:
Route #269:
Route #270:
Route #271:
Route #272:
Route #273:
Route #274:
Route #275:
Route #276:
Route #277:
Route #278:
Route #279:
Route #280:
Route #281:
Route #282:
Route #283:
Route #284:
Route #285:
Route #286:
Route #287:
Route #288:
Route #289:
Route #290:
Route #291:
Route #292:
Route #293:
Route #294:
Route #295:
Route #296:
Route #297:
Route #298:
Route #299:
Route #300:
Route #301:
Route #302:
Route #303:
Route #304:
Route #305:
Route #306:
Route #307:
Route #308:
Route #309:
Route #310:
Route #311:
Route #312:
Route #313:
Route #314:
Route #315:
Route #316:
Route #317:
Route #318:
Route #319:
Route #320:
Route #321:
Route #322:
Route #323:
Route #324:
Route #325:
Route #326:
Route #327:
Route #328:
Route #329:
Route #330:
Route #331:
Route #332:
Route #333:
Route #334:
Route #335:
Route #336:
Route #337:
Route #338:
Route #339:
Route #340:
Route #341:
Route #342:
Route #343:
Route #344:
Route #345:
Route #346:
Route #347:
Route #348:
Route #349:
Route #350:
Route #351:
Route #352:
Route #353:
Route #354:
Route #355:
Route #356:
Route #357:
Route #358:
Route #359:
Route #360:
Route #361:
Route #362:
Route #363:
Route #364:
Route #365:
Route #366:
Route #367:
Route #368:
Route #369:
Route #370:
Route #371:
Route #372:
Route #373:
Route #374:
Route #375:
Route #376:
Route #377:
Route #378:
Route #379:
Route #380:
Route #381:
Route #382:
Route #383:
Route #384:
Route #385:
Route #386:
Route #387:
Route #388:
Route #389:
Route #390:
Route #391:
Route #392:
Route #393:
Route #394:
Route #395:
Route #396:
Route #397:
Route #398:
Route #399:
Route #400:
Route #401:
Route #402:
Route #403:
Route #404:
Route #405:
Route #406:
Route #407:
Route #408:
Route #409:
Route #410:
Route #411:
Route #412:
Route #413:
Route #414:
Route #415:
Route #416:
Route #417:
Route #418:
Route #419:
Route #420:
Route #421:
Route #422:
Route #423:
Route #424:
Route #425:
Route #426:
Route #427:
Route #428:
Route #429:
Route #430:
Route #431:
Route #432:
Route #433:
Route #434:
Route #435:
Route #436:
Route #437:
Route #438:
Route #439:
Route #440:
Route #441:
Route #442:
Route #443:
Route #444:
Route #445:
Route #446:
Route #447:
Route #448:
Route #449:
Route #450:
Route #451:
Route #452:
Route #453:
Route #454:
Route #455:
Route #456:
Route #457:
Route #458:
Route #459:
Route #460:
Route #461:
Route #462:
Route #463:
Route #464:
Route #465:
Route #466:
Route #467:
Route #468:
Route #469:
Route #470:
Route #471:
Route #472:
Route #473:
Route #474:
Route #475:
Route #476:
Route #477:
Route #478:
Route #479:
Route #480:
Route #481:
Route #482:
Route #483:
Route #484:
Route #485:
Route #486:
Route #487:
Route #488:
Route #489:
Route #490:
Route #491:
Route #492:
Route #493:
Route #494:
Route #495:
Route #496:
Route #497:
Route #498:
Route #499:
Route #500:
Route #501:
Route #502:
Route #503:
Route #504:
Route #505:
Route #506:
Route #507:
Route #508:
Route #509:
Route #510:
Route #511:
Route #512:
Route #513:
Route #514:
Route #515:
Route #516:
Route #517:
Route #518:
Route #519:
Route #520:
Route #521:
Route #522:
Route #523:
Route #524:
Route #525:
Route #526:
Route #527:
Route #528:
Route #529:
Route #530:
Route #531:
Route #532:
Route #533:
Route #534:
Route #535:
Route #536:
Route #537:
Route #538:
Route #539:
Route #540:
Route #541:
Route #542:
Route #543:
Route #544:
Route #545:
Route #546:
Route #547:
Route #548:
Route #549:
Route #550:
Route #551:
Route #552:
Route #553:
Route #554:
Route #555:
Route #556:
Route #557:
Route #558:
Route #559:
Route #560:
Route #561:
Route #562:
Route #563:
Route #564:
Route #565:
Route #566:
Route #567:
Route #568:
Route #569:
Route #570:
Route #571:
Route #572:
Route #573:
Route #574:
Route #575:
Route #576:
Route #577:
Route #578:
Route #579:
Route #580:
Route #581:
Route #582:
Route #583:
Route #584:
Route #585:
Route #586:
Route #587:
Route #588:
Route #589:
Route #590:
Route #591:
Route #592:
Route #593:
Route #594:
Route #595:
Route #596:
Route #597:
Route #598:
Route #599:
Route #600:
Route #601:
Route #602:
Route #603:
Route #604:
Route #605:
Route #606:
Route #607:
Route #608:
Route #609:
Route #610:
Route #611:
Route #612:
Route #613:
Route #614:
Route #615:
Route #616:
Route #617:
Route #618:
Route #619:
Route #620:
Route #621:
Route #622:
Route #623:
Route #624:
Route #625:
Route #626:
Route #627:
Route #628:
Route #629:
Route #630:
Route #631:
Route #632:
Route #633:
Route #634:
Route #635:
Route #636:
Route #637:
Route #638:
Route #639:
Route #640:
Route #641:
Route #642:
Route #643:
Route #644:
Route #645:
Route #646:
Route #647:
Route #648:
Route #649:
Route #650:
Route #651:
Route #652:
Route #653:
Route #654:
Route #655:
Route #656:
Route #657:
Route #658:
Route #659:
Route #660:
Route #661:
Route #662:
Route #663:
Route #664:
Route #665:
Route #666:
Route #667:
Route #668:
Route #669:
Route #670:
Route #671:
Route #672:
Route #673:
Route #674:
Route #675:
Route #676:
Route #677:
Route #678:
Route #679:
Route #680:
Route #681:
Route #682:
Route #683:
Route #684:
Route #685:
Route #686:
Route #687:
Route #688:
Route #689:
Route #690:
Route #691:
Route #692:
Route #693:
Route #694:
Route #695:
Route #696:
Route #697:
Route #698:
Route #699:
Route #700:
Route #701:
Route #702:
Route #703:
Route #704:
Route #705:
Route #706:
Route #707:
Route #708:
Route #709:
Route #710:
Route #711:
Route #712:
Route #713:
Route #714:
Route #715:
Route #716:
Route #717:
Route #718:
Route #719:
Route #720:
Route #721:
Route #722:
Route #723:
Route #724:
Route #725:
Route #726:
Route #727:
Route #728:
Route #729:
Route #730:
Route #731:
Route #732:
Route #733:
Route #734:
Route #735:
Route #736:
Route #737:
Route #738:
Route #739:
Route #740:
Route #741:
Route #742:
Route #743:
Route #744:
Route #745:
Route #746:
Route #747:
Route #748:
Route #749: 539 130 106 215 304
Route #750: 356 457 77 17 170 547 344
Route #751: 234 324 572 282 509
Route #752: 730 504 313 384
Route #753:
Route #754:
Route #755:
Route #756:
Route #757:
Route #758:
Route #759:
Route #760:
Route #761:
Route #762:
Route #763:
Route #764:
Route #765:
Route #766:
Route #767:
Route #768:
Route #769:
Route #770:
Route #771:
Route #772:
Route #773:
Route #774:
Route #775:
Route #776:
Route #777:
Route #778:
Route #779:
Route #780:
Route #781:
Route #782:
Route #783:
Route #784:
Route #785:
Route #786:
Route #787:
Route #788:
Route #789:
Route #790:
Route #791:
Route #792:
Route #793:
Route #794:
Route #795:
Route #796:
Route #797:
Route #798:
Route #799:
Route #800:
Route #801:
Route #802:
Route #803:
Route #804:
Route #805:
Route #806:
Route #807:
Route #808:
Route #809:
Route #810:
Route #811:
Route #812:
Route #813:
Route #814:
Route #815:
Route #816:
Route #817:
Route #818:
Route #819:
Route #820:
Route #821:
Route #822:
Route #823:
Route #824:
Route #825:
Route #826:
Route #827:
Route #828:
Route #829:
Route #830:
Route #831:
Route #832:
Route #833:
Route #834:
Route #835:
Route #836:
Route #837:
Route #838:
Route #839:
Route #840:
Route #841:
Route #842:
Route #843:
Route #844:
Route #845:
Route #846:
Route #847:
Route #848:
Route #849:
Route #850:
Route #851:
Route #852:
Route #853:
Route #854:
Route #855:
Route #856:
Route #857:
Route #858:
Route #859:
Route #860:
Route #861:
Route #862:
Route #863:
Route #864:
Route #865:
Route #866:
Route #867:
Route #868:
Route #869:
Route #870:
Route #871:
Route #872:
Route #873:
Route #874:
Route #875:
Route #876:
Route #877:
Route #878:
Route #879:
Route #880:
Route #881:
Route #882:
Route #883:
Route #884:
Route #885:
Route #886:
Route #887:
Route #888:
Route #889:
Route #890:
Route #891:
Route #892:
Route #893:
Route #894:
Route #895:
Route #896:
Route #897:
Route #898:
Route #899:
Route #900:
Route #901:
Route #902:
Route #903:
Route #904:
Route #905:
Route #906:
Route #907:
Route #908:
Route #909:
Route #910:
Route #911:
Route #912:
Route #913:
Route #914:
Route #915:
Route #916:
Route #917:
Route #918:
Route #919:
Route #920:
Route #921:
Route #922:
Route #923:
Route #924:
Route #925:
Route #926:
Route #927:
Route #928:
Route #929:
Route #930:
Route #931:
Route #932:
Route #933:
Route #934:
Route #935:
Route #936:
Route #937:
Route #938:
Route #939:
Route #940:
Route #941:
Route #942:
Route #943:
Route #944:
Route #945:
Route #946:
Route #947:
Route #948:
Route #949:
Route #950:
Route #951:
Route #952:
Route #953:
Route #954:
Route #955:
Route #956:
Route #957:
Route #958:
Route #959:
Route #960:
Route #961:
Route #962:
Route #963:
Route #964:
Route #965:
Route #966:
Route #967:
Route #968:
Route #969:
Route #970:
Route #971:
Route #972:
Route #973:
Route #974:
Route #975:
Route #976:
Route #977:
Route #978:
Route #979:
Route #980:
Route #981:
Route #982:
Route #983:
Route #984:
Route #985:
Route #986:
Route #987:
Route #988:
Route #989:
Route #990:
Route #991:
Route #992:
Route #993:
Route #994:
Route #995:
Route #996:
Route #997:
Route #998:
Route #999:
Route #1000:
Route #1001:
Route #1002:
Route #1003:
Route #1004:
Route #1005:
Route #1006:
Route #1007:
Route #1008:
Route #1009:
Route #1010:
Route #1011:
Route #1012:
Route #1013:
Route #1014:
Route #1015:
Route #1016:
Route #1017:
Route #1018:
Route #1019:
Route #1020:
Route #1021:
Route #1022:
Route #1023:
Route #1024:
Route #1025:
Route #1026:
Route #1027:
Route #1028:
Route #1029:
Route #1030:
Route #1031:
Route #1032:
Route #1033:
Route #1034:
Route #1035:
Route #1036:
Route #1037:
Route #1038:
Route #1039:
Route #1040:
Route #1041:
Route #1042:
Route #1043:
Route #1044:
Route #1045:
Route #1046:
Route #1047:
Route #1048:
Route #1049:
Route #1050:
Route #1051:
Route #1052:
Route #1053:
Route #1054:
Route #1055:
Route #1056:
Route #1057:
Route #1058:
Route #1059:
Route #1060:
Route #1061:
Route #1062:
Route #1063:
Route #1064:
Route #1065:
Route #1066:
Route #1067:
Route #1068:
Route #1069:
Route #1070:
Route #1071:
Route #1072:
Route #1073:
Route #1074:
Route #1075:
Route #1076:
Route #1077:
Route #1078:
Route #1079:
Route #1080:
Route #1081:
Route #1082:
Route #1083:
Route #1084:
Route #1085:
Route #1086:
Route #1087:
Route #1088:
Route #1089:
Route #1090:
Route #1091:
Route #1092:
Route #1093:
Route #1094:
Route #1095:
Route #1096:
Route #1097:
Route #1098:
Route #1099:
Route #1100:
Route #1101:
Route #1102:
Route #1103:
Route #1104:
Route #1105:
Route #1106:
Route #1107:
Route #1108:
Route #1109:
Route #1110:
Route #1111:
Route #1112:
Route #1113:
Route #1114:
Route #1115:
Route #1116:
Route #1117:
Route #1118:
Route #1119:
Route #1120:
Route #1121:
Route #1122:
Route #1123:
Route #1124:
Route #1125:
Route #1126:
Route #1127:
Route #1128:
Route #1129:
Route #1130:
Route #1131:
Route #1132:
Route #1133:
Route #1134:
Route #1135:
Route #1136:
Route #1137:
Route #1138:
Route #1139:
Route #1140:
Route #1141:
Route #1142:
Route #1143:
Route #1144:
Route #1145:
Route #1146:
Route #1147:
Route #1148:
Route #1149:
Route #1150:
Route #1151:
Route #1152:
Route #1153:
Route #1154:
Route #1155:
Route #1156:
Route #1157:
Route #1158:
Route #1159:
Route #1160:
Route #1161:
Route #1162:
Route #1163:
Route #1164:
Route #1165:
Route #1166:
Route #1167:
Route #1168:
Route #1169:
Route #1170:
Route #1171:
Route #1172:
Route #1173:
Route #1174:
Route #1175:
Route #1176:
Route #1177:
Route #1178:
Route #1179:
Route #1180:
Route #1181:
Route #1182:
Route #1183:
Route #1184:
Route #1185:
Route #1186:
Route #1187:
Route #1188:
Route #1189:
Route #1190:
Route #1191:
Route #1192:
Route #1193:
Route #1194:
Route #1195:
Route #1196:
Route #1197:
Route #1198:
Route #1199:
Route #1200:
Route #1201:
Route #1202:
Route #1203:
Route #1204:
Route #1205:
Route #1206:
Route #1207:
Route #1208:
Route #1209:
Route #1210:
Route #1211:
Route #1212:
Route #1213:
Route #1214:
Route #1215:
Route #1216:
Route #1217:
Route #1218:
Route #1219:
Route #1220:
Route #1221:
Route #1222:
Route #1223:
Route #1224:
Route #1225:
Route #1226:
Route #1227:
Route #1228:
Route #1229:
Route #1230:
Route #1231:
Route #1232:
Route #1233:
Route #1234:
Route #1235:
Route #1236:
Route #1237:
Route #1238:
Route #1239:
Route #1240:
Route #1241:
Route #1242:
Route #1243:
Route #1244:
Route #1245:
Route #1246:
Route #1247:
Route #1248:
Route #1249:
Route #1250:
Route #1251:
Route #1252:
Route #1253:
Route #1254:
Route #1255:
Route #1256:
Route #1257:
Route #1258:
Route #1259:
Route #1260:
Route #1261:
Route #1262:
Route #1263:
Route #1264:
Route #1265:
Route #1266:
Route #1267:
Route #1268:
Route #1269:
Route #1270:
Route #1271:
Route #1272:
Route #1273:
Route #1274:
Route #1275:
Route #1276:
Route #1277:
Route #1278:
Route #1279:
Route #1280:
Route #1281:
Route #1282:
Route #1283:
Route #1284:
Route #1285:
Route #1286:
Route #1287:
Route #1288:
Route #1289:
Route #1290:
Route #1291:
Route #1292:
Route #1293:
Route #1294:
Route #1295:
Route #1296:
Route #1297:
Route #1298:
Route #1299:
Route #1300:
Route #1301:
Route #1302:
Route #1303:
Route #1304:
Route #1305:
Route #1306:
Route #1307:
Route #1308:
Route #1309:
Route #1310:
Route #1311:
Route #1312:
Route #1313:
Route #1314:
Route #1315:
Route #1316:
Route #1317:
Route #1318:
Route #1319:
Route #1320:
Route #1321:
Route #1322:
Route #1323:
Route #1324:
Route #1325:
Route #1326:
Route #1327:
Route #1328:
Route #1329:
Route #1330:
Route #1331:
Route #1332:
Route #1333:
Route #1334:
Route #1335:
Route #1336:
Route #1337:
Route #1338:
Route #1339:
Route #1340:
Route #1341:
Route #1342:
Route #1343:
Route #1344:
Route #1345:
Route #1346:
Route #1347:
Route #1348:
Route #1349:
Route #1350:
Route #1351:
Route #1352:
Route #1353:
Route #1354:
Route #1355:
Route #1356:
Route #1357:
Route #1358:
Route #1359:
Route #1360:
Route #1361:
Route #1362:
Route #1363:
Route #1364:
Route #1365:
Route #1366:
Route #1367:
Route #1368:
Route #1369:
Route #1370:
Route #1371:
Route #1372:
Route #1373:
Route #1374:
Route #1375:
Route #1376:
Route #1377:
Route #1378:
Route #1379:
Route #1380:
Route #1381:
Route #1382:
Route #1383:
Route #1384:
Route #1385:
Route #1386:
Route #1387:
Route #1388:
Route #1389:
Route #1390:
Route #1391:
Route #1392:
Route #1393:
Route #1394:
Route #1395:
Route #1396:
Route #1397:
Route #1398:
Route #1399:
Route #1400:
Route #1401:
Route #1402:
Route #1403:
Route #1404:
Route #1405:
Route #1406:
Route #1407:
Route #1408:
Route #1409:
Route #1410:
Route #1411:
Route #1412:
Route #1413:
Route #1414:
Route #1415:
Route #1416:
Route #1417:
Route #1418:
Route #1419:
Route #1420:
Route #1421:
Route #1422:
Route #1423:
Route #1424:
Route #1425:
Route #1426:
Route #1427:
Route #1428:
Route #1429:
Route #1430:
Route #1431:
Route #1432:
Route #1433:
Route #1434:
Route #1435:
Route #1436:
Route #1437:
Route #1438:
Route #1439:
Route #1440:
Route #1441:
Route #1442:
Route #1443:
Route #1444:
Route #1445:
Route #1446:
Route #1447:
Route #1448:
Route #1449:
Route #1450:
Route #1451:
Route #1452:
Route #1453:
Route #1454:
Route #1455:
Route #1456:
Route #1457:
Route #1458:
Route #1459:
Route #1460:
Route #1461:
Route #1462:
Route #1463:
Route #1464:
Route #1465:
Route #1466:
Route #1467:
Route #1468:
Route #1469:
Route #1470:
Route #1471:
Route #1472:
Route #1473:
Route #1474:
Route #1475:
Route #1476:
Route #1477:
Route #1478:
Route #1479:
Route #1480:
Route #1481:
Route #1482:
Route #1483:
Route #1484:
Route #1485:
Route #1486:
Route #1487:
Route #1488:
Route #1489:
Route #1490:
Route #1491:
Route #1492:
Route #1493:
Route #1494:
Route #1495:
Route #1496:
Route #1497: 12 687 620 56 206 290 724 619 463 435 622 155 52 67 446 373
Route #1498: 626 598 526 439 555 248 482 268 378 24 129 732 38 362 630 678 486
Route #1499: 184 238 55 364 381 159 61 579 235 86 353 327 465 411 588
Route #1500: 257 461 652 549 585 202 348 78 321 517 28 564 470 118 186 388
Route #1501: 540 633 694 72 18 212 266 154 718 690 623 133 659 596 349 242 695
Route #1502: 58 739 477 613 293 98 452 628 466 244 283 94 464 294
Route #1503: 543 413 34 688 587 736 643 743 666 271 386 219 512 41 618 602 311
Route #1504: 3 308 6 119 74 487 519 218 428 483 565 591 246 252 263
Route #1505: 351 449 128 432 616 692 399 124 81 662 639 45 606 645
Route #1506: 328 511 496 253 151 597 448 92 745 683 469 158 173 287 247 569 66 674
Route #1507: 586 228 272 126 109 722 264 16 721 562 140 567 621 284 737
Route #1508: 740 536 649 57 516 277 211 365 640 528 36 646 390 380 650 331
Route #1509: 332 489 577 675 488 437 515 350 229 4 309 518 134 660 558
Route #1510: 479 396 175 615 654 7 301 593 673 422 414 156 699 508 198 300
Route #1511: 302 269 557 447 552 225 578 505 195 525 11 46 369
Route #1512: 192 107 317 625 182 53 715 59 420 611 431 255 632 712 445 148 429 281
Route #1513: 127 474 276 323 680 501 23 216 408 90 296 603 116
Route #1514: 240 161 297 542 713 415 729 101 636 667 44 497 545
Route #1515: 48 288 207 460 742 433 506 629 27 561 402 522 627 213
Route #1516: 377 113 427 459 374 152 471 575 746 358 412 590 677
Route #1517: 261 708 697 280 744 617 190 312 146 181 553 612 538 95
Route #1518: 64 521 250 698 434 368 241 171 359 444 149 352 19 454 376 648 703 183
Route #1519: 251 375 383 638 341 456 43 394 473 139 104 467 111 455
Route #1520: 655 188 230 527 478 346 314 417 723 62 224 162 582 254 227 305 330
Route #1521: 503 201 551 541 203 262 97 385 668 339 166 605 275 664 583 610 307 21 462
Route #1522: 208 306 105 217 185 47 180 370 696 33 711 584 135 635 537 495
Route #1523: 8 533 205 398 177 653 468 500 2 243 63 641 689 25
Route #1524: 490 685 741 83 318 401 453 717 644 499 14 71
Route #1525: 125 548 424 580 13 707 249 451 589 231 42 647 315 132 325 592 421 681
Route #1526: 60 137 601 100 726 292 531 147 1 430
Route #1527: 631 400 637 285 93 220 169 665 669 426 69 493 286 334
Route #1528: 144 679 197 360 450 209 179 599 440 85 416 259
Route #1529: 600 279 65 671 498 160 595 338 672 5 738 295 379 49 310
Route #1530: 395 322 51 389 174 163 108 523 123 735 573 30 691 475 546 634 581 566 22 510 441 418
Route #1531: 233 594 89 442 298 84 96 232 102 382 554 686 167
Route #1532: 480 87 299 704 39 70 329 663 407 684 534 571
Route #1533: 342 700 345 560 214 491 112 142 532 20 727 425
Route #1534: 728 88 236 165 136 35 563 676 404 576 405 91 29 403 178 458
Route #1535: 642 210 99 367 702 513 319 316 80 492 733 191 204 200
Route #1536: 366 153 481 114 530 609 354 120 145 337 438 26 226 340 693 701 670 392
Route #1537: 320 705 193 110 391 657 168 115 714 485 122 731 265 274 363 406
Route #1538: 529 393 556 278 397 222 73 709 273 141 103 347
Route #1539: 725 357 237 9 409 260 656 419 372 494 258
Route #1540: 37 472 143 706 117 387 291 607 223 719 423 221 682 176 333 194
Route #1541: 76 256 371 443 199 196 361 267 476 289 82 303 604 121 661
Route #1542: 164 574 326 535 734 436 75 189 651 79 484 239 68 747
Route #1543: 10 355 343 131 748 570 172 31 336 50
Route #1544: 507 514 502 138 720 32 716 335 658 608 15
Route #1545: 524 559 150 550 410 568 245 40 520 187
Route #1546:
Route #1547:
Route #1548:
Route #1549:
Route #1550:
Route #1551:
Route #1552:
Route #1553:
Route #1554:
Route #1555:
Route #1556:
Route #1557:
Route #1558:
Route #1559:
Route #1560:
Route #1561:
Route #1562:
Route #1563:
Route #1564:
Route #1565:
Route #1566:
Route #1567:
Route #1568:
Route #1569:
Route #1570:
Route #1571:
Route #1572:
Route #1573:
Route #1574:
Route #1575:
Route #1576:
Route #1577:
Route #1578:
Route #1579:
Route #1580:
Route #1581:
Route #1582:
Route #1583:
Route #1584:
Route #1585:
Route #1586:
Route #1587:
Route #1588:
Route #1589:
Route #1590:
Route #1591:
Route #1592:
Route #1593:
Route #1594:
Route #1595:
Route #1596:
Route #1597:
Route #1598:
Route #1599:
Route #1600:
Route #1601:
Route #1602:
Route #1603:
Route #1604:
Route #1605:
Route #1606:
Route #1607:
Route #1608:
Route #1609:
Route #1610:
Route #1611:
Route #1612:
Route #1613:
Route #1614:
Route #1615:
Route #1616:
Route #1617:
Route #1618:
Route #1619:
Route #1620:
Route #1621:
Route #1622:
Route #1623:
Route #1624:
Route #1625:
Route #1626:
Route #1627:
Route #1628:
Route #1629:
Route #1630:
Route #1631:
Route #1632:
Route #1633:
Route #1634:
Route #1635:
Route #1636:
Route #1637:
Route #1638:
Route #1639:
Route #1640:
Route #1641:
Route #1642:
Route #1643:
Route #1644:
Route #1645:
Route #1646:
Route #1647:
Route #1648:
Route #1649:
Route #1650:
Route #1651:
Route #1652:
Route #1653:
Route #1654:
Route #1655:
Route #1656:
Route #1657:
Route #1658:
Route #1659:
Route #1660:
Route #1661:
Route #1662:
Route #1663:
Route #1664:
Route #1665:
Route #1666:
Route #1667:
Route #1668:
Route #1669:
Route #1670:
Route #1671:
Route #1672:
Route #1673:
Route #1674:
Route #1675:
Route #1676:
Route #1677:
Route #1678:
Route #1679:
Route #1680:
Route #1681:
Route #1682:
Route #1683:
Route #1684:
Route #1685:
Route #1686:
Route #1687:
Route #1688:
Route #1689:
Route #1690:
Route #1691:
Route #1692:
Route #1693:
Route #1694:
Route #1695:
Route #1696:
Route #1697:
Route #1698:
Route #1699:
Route #1700:
Route #1701:
Route #1702:
Route #1703:
Route #1704:
Route #1705:
Route #1706:
Route #1707:
Route #1708:
Route #1709:
Route #1710:
Route #1711:
Route #1712:
Route #1713:
Route #1714:
Route #1715:
Route #1716:
Route #1717:
Route #1718:
Route #1719:
Route #1720:
Route #1721:
Route #1722:
Route #1723:
Route #1724:
Route #1725:
Route #1726:
Route #1727:
Route #1728:
Route #1729:
Route #1730:
Route #1731:
Route #1732:
Route #1733:
Route #1734:
Route #1735:
Route #1736:
Route #1737:
Route #1738:
Route #1739:
Route #1740:
Route #1741:
Route #1742:
Route #1743:
Route #1744:
Route #1745:
Route #1746:
Route #1747:
Route #1748:
Route #1749:
Route #1750:
Route #1751:
Route #1752:
Route #1753:
Route #1754:
Route #1755:
Route #1756:
Route #1757:
Route #1758:
Route #1759:
Route #1760:
Route #1761:
Route #1762:
Route #1763:
Route #1764:
Route #1765:
Route #1766:
Route #1767:
Route #1768:
Route #1769:
Route #1770:
Route #1771:
Route #1772:
Route #1773:
Route #1774:
Route #1775:
Route #1776:
Route #1777:
Route #1778:
Route #1779:
Route #1780:
Route #1781:
Route #1782:
Route #1783:
Route #1784:
Route #1785:
Route #1786:
Route #1787:
Route #1788:
Route #1789:
Route #1790:
Route #1791:
Route #1792:
Route #1793:
Route #1794:
Route #1795:
Route #1796:
Route #1797:
Route #1798:
Route #1799:
Route #1800:
Route #1801:
Route #1802:
Route #1803:
Route #1804:
Route #1805:
Route #1806:
Route #1807:
Route #1808:
Route #1809:
Route #1810:
Route #1811:
Route #1812:
Route #1813:
Route #1814:
Route #1815:
Route #1816:
Route #1817:
Route #1818:
Route #1819:
Route #1820:
Route #1821:
Route #1822:
Route #1823:
Route #1824:
Route #1825:
Route #1826:
Route #1827:
Route #1828:
Route #1829:
Route #1830:
Route #1831:
Route #1832:
Route #1833:
Route #1834:
Route #1835:
Route #1836:
Route #1837:
Route #1838:
Route #1839:
Route #1840:
Route #1841:
Route #1842:
Route #1843:
Route #1844:
Route #1845:
Route #1846:
Route #1847:
Route #1848:
Route #1849:
Route #1850:
Route #1851:
Route #1852:
Route #1853:
Route #1854:
Route #1855:
Route #1856:
Route #1857:
Route #1858:
Route #1859:
Route #1860:
Route #1861:
Route #1862:
Route #1863:
Route #1864:
Route #1865:
Route #1866:
Route #1867:
Route #1868:
Route #1869:
Route #1870:
Route #1871:
Route #1872:
Route #1873:
Route #1874:
Route #1875:
Route #1876:
Route #1877:
Route #1878:
Route #1879:
Route #1880:
Route #1881:
Route #1882:
Route #1883:
Route #1884:
Route #1885:
Route #1886:
Route #1887:
Route #1888:
Route #1889:
Route #1890:
Route #1891:
Route #1892:
Route #1893:
Route #1894:
Route #1895:
Route #1896:
Route #1897:
Route #1898:
Route #1899:
Route #1900:
Route #1901:
Route #1902:
Route #1903:
Route #1904:
Route #1905:
Route #1906:
Route #1907:
Route #1908:
Route #1909:
Route #1910:
Route #1911:
Route #1912:
Route #1913:
Route #1914:
Route #1915:
Route #1916:
Route #1917:
Route #1918:
Route #1919:
Route #1920:
Route #1921:
Route #1922:
Route #1923:
Route #1924:
Route #1925:
Route #1926:
Route #1927:
Route #1928:
Route #1929:
Route #1930:
Route #1931:
Route #1932:
Route #1933:
Route #1934:
Route #1935:
Route #1936:
Route #1937:
Route #1938:
Route #1939:
Route #1940:
Route #1941:
Route #1942:
Route #1943:
Route #1944:
Route #1945:
Route #1946:
Route #1947:
Route #1948:
Route #1949:
Route #1950:
Route #1951:
Route #1952:
Route #1953:
Route #1954:
Route #1955:
Route #1956:
Route #1957:
Route #1958:
Route #1959:
Route #1960:
Route #1961:
Route #1962:
Route #1963:
Route #1964:
Route #1965:
Route #1966:
Route #1967:
Route #1968:
Route #1969:
Route #1970:
Route #1971:
Route #1972:
Route #1973:
Route #1974:
Route #1975:
Route #1976:
Route #1977:
Route #1978:
Route #1979:
Route #1980:
Route #1981:
Route #1982:
Route #1983:
Route #1984:
Route #1985:
Route #1986:
Route #1987:
Route #1988:
Route #1989:
Route #1990:
Route #1991:
Route #1992:
Route #1993:
Route #1994:
Route #1995:
Route #1996:
Route #1997:
Route #1998:
Route #1999:
Route #2000:
Route #2001:
Route #2002:
Route #2003:
Route #2004:
Route #2005:
Route #2006:
Route #2007:
Route #2008:
Route #2009:
Route #2010:
Route #2011:
Route #2012:
Route #2013:
Route #2014:
Route #2015:
Route #2016:
Route #2017:
Route #2018:
Route #2019:
Route #2020:
Route #2021:
Route #2022:
Route #2023:
Route #2024:
Route #2025:
Route #2026:
Route #2027:
Route #2028:
Route #2029:
Route #2030:
Route #2031:
Route #2032:
Route #2033:
Route #2034:
Route #2035:
Route #2036:
Route #2037:
Route #2038:
Route #2039:
Route #2040:
Route #2041:
Route #2042:
Route #2043:
Route #2044:
Route #2045:
Route #2046:
Route #2047:
Route #2048:
Route #2049:
Route #2050:
Route #2051:
Route #2052:
Route #2053:
Route #2054:
Route #2055:
Route #2056:
Route #2057:
Route #2058:
Route #2059:
Route #2060:
Route #2061:
Route #2062:
Route #2063:
Route #2064:
Route #2065:
Route #2066:
Route #2067:
Route #2068:
Route #2069:
Route #2070:
Route #2071:
Route #2072:
Route #2073:
Route #2074:
Route #2075:
Route #2076:
Route #2077:
Route #2078:
Route #2079:
Route #2080:
Route #2081:
Route #2082:
Route #2083:
Route #2084:
Route #2085:
Route #2086:
Route #2087:
Route #2088:
Route #2089:
Route #2090:
Route #2091:
Route #2092:
Route #2093:
Route #2094:
Route #2095:
Route #2096:
Route #2097:
Route #2098:
Route #2099:
Route #2100:
Route #2101:
Route #2102:
Route #2103:
Route #2104:
Route #2105:
Route #2106:
Route #2107:
Route #2108:
Route #2109:
Route #2110:
Route #2111:
Route #2112:
Route #2113:
Route #2114:
Route #2115:
Route #2116:
Route #2117:
Route #2118:
Route #2119:
Route #2120:
Route #2121:
Route #2122:
Route #2123:
Route #2124:
Route #2125:
Route #2126:
Route #2127:
Route #2128:
Route #2129:
Route #2130:
Route #2131:
Route #2132:
Route #2133:
Route #2134:
Route #2135:
Route #2136:
Route #2137:
Route #2138:
Route #2139:
Route #2140:
Route #2141:
Route #2142:
Route #2143:
Route #2144:
Route #2145:
Route #2146:
Route #2147:
Route #2148:
Route #2149:
Route #2150:
Route #2151:
Route #2152:
Route #2153:
Route #2154:
Route #2155:
Route #2156:
Route #2157:
Route #2158:
Route #2159:
Route #2160:
Route #2161:
Route #2162:
Route #2163:
Route #2164:
Route #2165:
Route #2166:
Route #2167:
Route #2168:
Route #2169:
Route #2170:
Route #2171:
Route #2172:
Route #2173:
Route #2174:
Route #2175:
Route #2176:
Route #2177:
Route #2178:
Route #2179:
Route #2180:
Route #2181:
Route #2182:
Route #2183:
Route #2184:
Route #2185:
Route #2186:
Route #2187:
Route #2188:
Route #2189:
Route #2190:
Route #2191:
Route #2192:
Route #2193:
Route #2194:
Route #2195:
Route #2196:
Route #2197:
Route #2198:
Route #2199:
Route #2200:
Route #2201:
Route #2202:
Route #2203:
Route #2204:
Route #2205:
Route #2206:
Route #2207:
Route #2208:
Route #2209:
Route #2210:
Route #2211:
Route #2212:
Route #2213:
Route #2214:
Route #2215:
Route #2216:
Route #2217:
Route #2218:
Route #2219:
Route #2220:
Route #2221:
Route #2222:
Route #2223:
Route #2224:
Route #2225:
Route #2226:
Route #2227:
Route #2228:
Route #2229:
Route #2230:
Route #2231:
Route #2232:
Route #2233:
Route #2234:
Route #2235:
Route #2236:
Route #2237:
Route #2238:
Route #2239:
Route #2240:
Route #2241:
Route #2242:
Route #2243:
Route #2244:
Cost: 12476725600
